Optimize a model with 12314 rows, 11990 columns and 82512 nonzeros
Variable types: 109 continuous, 11881 integer (11881 binary)
Coefficient statistics:
  Matrix range     [1e+00, 4e+02]
  Objective range  [1e+00, 1e+03]
  Bounds range     [1e+00, 1e+00]
  RHS range        [1e+00, 4e+02]
Found heuristic solution: objective -0.0000000
Presolve removed 10809 rows and 10593 columns
Presolve time: 1.03s
Presolved: 1505 rows, 1397 columns, 12465 nonzeros
Variable types: 108 continuous, 1289 integer (1289 binary)

Root relaxation: objective 1.070000e+02, 591 iterations, 0.04 seconds

    Nodes    |    Current Node    |     Objective Bounds      |     Work
 Expl Unexpl |  Obj  Depth IntInf | Incumbent    BestBd   Gap | It/Node Time

     0     0  107.00000    0   14   -0.00000  107.00000      -     -    1s
     0     0  107.00000    0  101   -0.00000  107.00000      -     -    1s
H    0     0                     106.0000000  107.00000  0.94%     -    1s

Cutting planes:
  Learned: 2
  Gomory: 1
  Implied bound: 2
  MIR: 1
  Flow cover: 4

Explored 1 nodes (2822 simplex iterations) in 1.93 seconds
Thread count was 4 (of 4 available processors)

Solution count 2: 106 -0 

Solve interrupted
Best objective 1.060000000000e+02, best bound 1.070000000000e+02, gap 0.9434%
